65
Lattice="10.854 0.0 0.0 0.0 10.854 0.0 0.0 0.0 10.854" Properties=species:S:1:pos:R:3
Si 9.474636948978599 1.3447496124594 1.3447496124594
Si 9.5289878677194 4.0555667728386 4.0555667728386
Si 9.5289878677194 6.798433227161399 6.798433227161399
Si 9.474636948978599 9.5092503875406 9.5092503875406
Si 6.785660580776999 1.3666841983926 4.0883363664426
Si 7.1062359465744 3.909744570123 6.944255429877
Si 6.785660580776999 6.765663633557399 9.487315801607398
Si 6.7518696312 9.4840266814254 1.3699733185746
Si 4.0683394170522 1.3666842027341999 6.765663633557399
Si 4.0683394170522 4.0883363664426 9.487315797265799
Si 4.0683394170522 6.765663633557399 1.3666842027341999
Si 4.0683394170522 9.487315797265799 4.0883363664426
Si 1.3793630521068 1.3447496124594 9.5092503875406
Si 1.3120068228083999 4.0353805448838 1.2939075856926
Si 1.3250121355367999 6.798433228246799 4.0555667717532
Si 1.3120068228083999 9.5600924143074 6.818619455116199
Si 6.785660580776999 4.0883363664426 1.3666841983926
Si 7.1062359465744 6.944255429877 3.909744570123
Si 6.785660580776999 9.487315801607398 6.765663633557399
Si 6.7518696312 1.3699733185746 9.4840266814254
Si 3.7477640534256 3.9097445929164 3.9097445929164
Si 3.7477640534256 6.944255407083599 6.944255407083599
Si 4.102130364458399 9.484026684681599 9.484026684681599
Si 4.102130364458399 1.3699733153184 1.3699733153184
Si 1.3250121355367999 4.0555667717532 6.798433228246799
Si 1.3120068228083999 6.818619455116199 9.5600924143074
Si 1.3793630521068 9.5092503875406 1.3447496124594
Si 1.3120068228083999 1.2939075856926 4.0353805448838
Si 9.541993181533199 4.035380540542199 9.560092418648999
Si 9.541993181533199 6.8186194594578 1.293907581351
Si 9.541993181533199 9.560092418648999 4.035380540542199
Si 9.541993181533199 1.293907581351 6.8186194594578
Si 8.327123675999999e-10 10.854 10.854
Si 10.84839775576614 2.6877190940261997 2.6877190940261997
Si 3.8261174904e-09 5.427 5.427
Si 10.848397755657599 8.1662809059738 8.1662809059738
Si 8.114575247049599 0.006252995682295199 2.7047453350932
Si 8.2617567927858 2.6151829527815997 5.420570025276
Si 8.2617567927858 5.433429974724 8.238817047218399
Si 8.114575247049599 8.149254664906799 10.84774700430468
Si 5.426999997829199 1.9146456e-12 5.427
Si 5.4241075359918 2.7500542878888 8.1039457121112
Si 5.426999997829199 5.427 9.030528e-13
Si 5.4241075359918 8.1039457121112 2.7500542878888
Si 2.7394247540357997 0.0062529951157164 8.149254664906799
Si 2.7394247540357997 2.7047453350932 10.84774700484738
Si 2.5922432104703996 5.433429972553199 2.6151829603793995
Si 2.5922432104703996 8.2388170396206 5.4205700274468
Si 8.114575247049599 2.7047453350932 0.006252995677953599
Si 8.2617567927858 5.420570025276 2.6151829527815997
Si 8.2617567927858 8.238817047218399 5.433429974724
Si 8.114575247049599 10.84774700430468 8.149254664906799
Si 5.4298924531542 2.7500542922304 2.7500542922304
Si 6.4936048174289995 5.427 5.427
Si 4.3603951728023995 5.427 5.427
Si 5.4298924531542 8.103945707769599 8.103945707769599
Si 5.426999998914599 10.854 1.1068909199999999e-11
Si 2.5922432104703996 2.6151829603793995 5.433429972553199
Si 2.5922432104703996 5.4205700274468 8.2388170396206
Si 2.7394247540357997 8.149254664906799 0.006252995117887199
Si 2.7394247540357997 10.84774700484738 2.7047453350932
Si 0.005602247443387799 2.6877190951116 8.1662809048884
Si 7.655934024e-10 5.427 9.169459199999999e-12
Si 0.0056022474401316 8.1662809048884 2.6877190951116
Si 7.69586589e-10 6.7001742e-12 5.427
