63
Lattice="10.91929851 0.0 0.0 0.0 10.91929851 0.0 0.0 0.0 10.91929851" Properties=species:S:1:pos:R:3
Si 9.553638098730133 1.365660411269868 1.365660411269868
Si 9.537435553324492 4.098546287037673 4.098546287037673
Si 9.537435553324492 6.820752222962327 6.820752222962327
Si 9.553638098730133 9.553638098730133 9.553638098730133
Si 6.820752222962327 1.3818629566755092 4.098546287037673
Si 6.597161308156301 4.3221372018437 6.597161308156301
Si 6.820752222962327 6.820752222962327 9.537435553324492
Si 6.818732526177986 9.529051202721483 1.390247307278517
Si 4.098546287037673 1.3818629566755092 6.820752222962327
Si 4.098546287037673 4.098546287037673 9.537435553324492
Si 4.098546287037673 6.820752222962327 1.3818629566755092
Si 4.098546287037673 9.537435553324492 4.098546287037673
Si 1.365660411269868 1.365660411269868 9.553638098730133
Si 1.390247307278517 4.1005659838220145 1.390247307278517
Si 1.3818629566755092 6.820752222962327 4.098546287037673
Si 1.390247307278517 9.529051202721483 6.818732526177986
Si 6.820752222962327 4.098546287037673 1.3818629566755092
Si 6.597161308156301 6.597161308156301 4.3221372018437
Si 6.820752222962327 9.537435553324492 6.820752222962327
Si 6.818732526177986 1.390247307278517 9.529051202721483
Si 4.3221372018437 4.3221372018437 4.3221372018437
Si 4.3221372018437 6.597161308156301 6.597161308156301
Si 4.1005659838220145 9.529051202721483 9.529051202721483
Si 4.1005659838220145 1.390247307278517 1.390247307278517
Si 1.3818629566755092 4.098546287037673 6.820752222962327
Si 1.390247307278517 6.818732526177986 9.529051202721483
Si 1.365660411269868 9.553638098730133 1.365660411269868
Si 1.390247307278517 1.390247307278517 4.1005659838220145
Si 9.529051202721483 4.1005659838220145 9.529051202721483
Si 9.529051202721483 6.818732526177986 1.390247307278517
Si 9.529051202721483 9.529051202721483 4.1005659838220145
Si 9.529051202721483 1.390247307278517 6.818732526177986
Si 1.395486349578e-12 10.91929851 2.403337602051e-12
Si 10.91926285827198 2.736018760093486 2.736018760093486
Si 10.91929851 5.459649255 5.459649255
Si 10.91926285827198 8.183279749906514 8.183279749906514
Si 8.183279749906514 3.565174256562582e-05 2.736018760093486
Si 8.12171260103335 2.7975859089666506 5.478720740171949
Si 8.12171260103335 5.440577769828052 8.12171260103335
Si 8.183279749906514 8.183279749906514 10.91926285827198
Si 5.459649255 10.91929851 5.459649255
Si 5.478720740171949 2.7975859089666506 8.12171260103335
Si 5.459649255 5.459649255 3.0257376171210003e-12
Si 5.478720740171949 8.12171260103335 2.7975859089666506
Si 2.736018760093486 3.56517426638995e-05 8.183279749906514
Si 2.736018760093486 2.736018760093486 10.91926285827198
Si 2.7975859089666506 5.440577769828052 2.7975859089666506
Si 2.7975859089666506 8.12171260103335 5.478720740171949
Si 8.183279749906514 2.736018760093486 3.5651741779436325e-05
Si 8.12171260103335 5.478720740171949 2.7975859089666506
Si 8.12171260103335 8.12171260103335 5.440577769828052
Si 8.183279749906514 10.91926285827198 8.183279749906514
Si 5.440577769828052 2.7975859089666506 2.7975859089666506
Si 5.440577769828052 8.12171260103335 8.12171260103335
Si 5.459649255 1.2928449435840002e-12 1.2775579256700002e-12
Si 2.7975859089666506 2.7975859089666506 5.440577769828052
Si 2.7975859089666506 5.478720740171949 8.12171260103335
Si 2.736018760093486 8.183279749906514 3.5651742576545116e-05
Si 2.736018760093486 10.91926285827198 2.736018760093486
Si 3.565173992315558e-05 2.736018760093486 8.183279749906514
Si 1.71432986607e-13 5.459649255 10.91929851
Si 3.5651744552938144e-05 8.183279749906514 2.736018760093486
Si 10.91929851 3.4417628903520005e-12 5.459649255
