65
Lattice="10.854 0.0 0.0 0.0 10.854 0.0 0.0 0.0 10.854" Properties=species:S:1:pos:R:3
Si 9.5041788310764 1.35675 1.35675
Si 9.505162256660999 4.0623377433389996 4.0623377433389996
Si 9.6420434410584 6.7837499999999995 6.7837499999999995
Si 9.505162256660999 9.505162256660999 9.505162256660999
Si 6.7837499999999995 1.35675 4.0479347599452
Si 6.7837499999999995 3.9254565589415997 6.7837499999999995
Si 6.7837499999999995 6.7837499999999995 9.6420434410584
Si 6.7837499999999995 9.5195652400548 1.35675
Si 4.0479347599452 1.35675 6.7837499999999995
Si 4.0623377433389996 4.0623377433389996 9.505162256660999
Si 4.0479347599452 6.7837499999999995 1.35675
Si 4.0623377433389996 9.505162256660999 4.0623377433389996
Si 1.35675 1.35675 9.5041788310764
Si 1.35675 4.0633211689236 1.35675
Si 1.35675 6.7837499999999995 4.0479347599452
Si 1.35675 9.5195652400548 6.7837499999999995
Si 6.7837499999999995 4.0479347599452 1.35675
Si 6.7837499999999995 6.7837499999999995 3.9254565589415997
Si 6.7837499999999995 9.6420434410584 6.7837499999999995
Si 6.7837499999999995 1.35675 9.5195652400548
Si 4.0254045260292 4.0254045260292 4.0254045260292
Si 3.9254565589415997 6.7837499999999995 6.7837499999999995
Si 4.0254045260292 9.542095473970798 9.542095473970798
Si 4.0633211689236 1.35675 1.35675
Si 1.35675 4.0479347599452 6.7837499999999995
Si 1.35675 6.7837499999999995 9.5195652400548
Si 1.35675 9.5041788310764 1.35675
Si 1.35675 1.35675 4.0633211689236
Si 9.542095473970798 4.0254045260292 9.542095473970798
Si 9.5195652400548 6.7837499999999995 1.35675
Si 9.542095473970798 9.542095473970798 4.0254045260292
Si 9.5195652400548 1.35675 6.7837499999999995
Si 0.0038378601052091997 0.0038378601062945997 0.0038378601095507997
Si 0.0038378601052091997 2.709662139567 2.709662139567
Si 0.045813672598193994 5.3942881203702 5.3942881203702
Si 0.045813672598193994 8.1732118796298 8.1732118796298
Si 8.141963271156 0.0117113324958 2.7017886675041995
Si 8.1732118796298 2.6676863275212 5.3942881203702
Si 8.177879729161798 5.3896202708382 8.177879729161798
Si 8.1732118796298 8.1732118796298 0.04581367258734
Si 5.3942881203702 0.04581367258734 5.3942881203702
Si 5.3942881203702 2.6676863275212 8.1732118796298
Si 5.3942881203702 5.3942881203702 0.04581367258734
Si 5.3942881203702 8.1732118796298 2.6676863275212
Si 2.7017886675041995 0.011711332484946 8.141963271156
Si 2.709662139567 2.709662139567 0.0038378601062945997
Si 2.7017886675041995 5.4255367288439995 2.7017886675041995
Si 2.6676863275212 8.1732118796298 5.3942881203702
Si 8.141963271156 2.7017886675041995 0.011711332484946
Si 8.1732118796298 5.3942881203702 2.6676863275212
Si 8.177879729161798 8.177879729161798 5.3896202708382
Si 8.1732118796298 0.04581367258734 8.1732118796298
Si 5.4255367288439995 2.7017886675041995 2.7017886675041995
Si 5.3896202708382 5.3896202708382 5.3896202708382
Si 5.3896202708382 8.177879729161798 8.177879729161798
Si 6.7837499999999995 6.7837499999999995 6.7837499999999995
Si 5.4255367288439995 0.011711332484946 0.011711332484946
Si 2.7017886675041995 2.7017886675041995 5.4255367288439995
Si 2.6676863275212 5.3942881203702 8.1732118796298
Si 2.7017886675041995 8.141963271156 0.011711332484946
Si 2.709662139567 0.0038378601052091997 2.709662139567
Si 0.011711332484946 2.7017886675041995 8.141963271156
Si 0.0117113324958 5.4255367288439995 0.011711332484946
Si 0.011711332484946 8.141963271156 2.7017886675041995
Si 0.011711332484946 0.0117113324958 5.4255367288439995
