65
Lattice="10.854 0.0 0.0 0.0 10.854 0.0 0.0 0.0 10.854" Properties=species:S:1:pos:R:3
Si 9.507762151099199 1.3769951185025997 1.3769951185025997
Si 9.438172777510198 4.129327222489799 4.129327222489799
Si 9.6763674099528 6.835492359554399 6.835492359554399
Si 9.497860406166598 9.524580450148799 9.524580450148799
Si 6.776703101282399 1.3396657725234 4.0521307665599995
Si 6.7320076404456 3.8911325900472 6.835492359554399
Si 6.7888016773632 6.778698322636799 9.559566193935598
Si 6.784776981601199 9.523011101765398 1.3386194545211998
Si 4.0444888982346 1.3386194545211998 6.7827230183988
Si 4.0429195498512 4.0696395938334 9.524580450148799
Si 4.0444888982346 6.7827230183988 1.3386194545211998
Si 4.0429195498512 9.524580450148799 4.0696395938334
Si 1.3760537282892 1.3374462717107998 9.501898733467199
Si 1.3365048814973999 4.0597378489008 1.3769951185025997
Si 1.3738342274766 6.7907968987176 4.0521307665599995
Si 1.3748805454788 9.523011101765398 6.7827230183988
Si 6.776703101282399 4.0521307665599995 1.3396657725234
Si 6.7320076404456 6.835492359554399 3.8911325900472
Si 6.7888016773632 9.559566193935598 6.778698322636799
Si 6.784776981601199 1.3386194545211998 9.523011101765398
Si 3.9934118791116 3.9949441241813997 3.9949441241813997
Si 4.0079338060644 6.778698322636799 6.778698322636799
Si 4.117372874361 9.450127125639 9.450127125639
Si 4.065601266532799 1.3374462717107998 1.3374462717107998
Si 1.3738342274766 4.0521307665599995 6.7907968987176
Si 1.3748805454788 6.7827230183988 9.523011101765398
Si 1.3760537282892 9.501898733467199 1.3374462717107998
Si 1.3365048814973999 1.3769951185025997 4.0597378489008
Si 9.5725558758186 3.9949441241813997 9.5740881208884
Si 9.51536923344 6.7907968987176 1.3396657725234
Si 9.5725558758186 9.5740881208884 3.9949441241813997
Si 9.51536923344 1.3396657725234 6.7907968987176
Si 0.004648732984197 0.019303728321761998 0.019303728321761998
Si 10.80687712542192 2.7606228743609997 2.7606228743609997
Si 0.062316193566563996 5.4320516773632 5.4320516773632
Si 0.076838121083772 8.2158058758186 8.2158058758186
Si 8.1394730183988 0.018130545022932 2.6877388982346
Si 8.1354483226368 2.6511838060643997 5.4320516773632
Si 8.192242359554399 5.3752576404456 8.3196174099528
Si 8.1475468987176 8.15861923344 0.01708422796503
Si 5.408880766559999 0.01708422796503 5.419953101282399
Si 5.3516941241814 2.6366618791115997 8.2158058758186
Si 5.408880766559999 5.419953101282399 0.01708422796503
Si 5.3516941241814 8.2158058758186 2.6366618791115997
Si 2.7337451185025996 10.833754881823019 8.151012151099199
Si 2.6941962717108 2.7088512665328 0.019303728321761998
Si 2.6953694545211997 5.4280269816011995 2.6877388982346
Si 2.6964157725233995 8.15861923344 5.419953101282399
Si 8.1394730183988 2.6877388982346 0.018130545022932
Si 8.1354483226368 5.4320516773632 2.6511838060643997
Si 8.192242359554399 8.3196174099528 5.3752576404456
Si 8.1475468987176 0.01708422796503 8.15861923344
Si 5.4263895938334 2.6861695498511997 2.6861695498511997
Si 5.247882590047199 5.3752576404456 5.3752576404456
Si 5.4860772224898 8.081422777510198 8.081422777510198
Si 7.4621249999999995 6.1053749999999996 6.1053749999999996
Si 5.4164878489007995 10.833754881823019 10.833754881823019
Si 2.6953694545211997 2.6877388982346 5.4280269816011995
Si 2.6964157725233995 5.419953101282399 8.15861923344
Si 2.7337451185025996 8.151012151099199 10.833754881823019
Si 2.6941962717108 0.019303728321761998 2.7088512665328
Si 0.027330450051114 2.6861695498511997 8.141110406166598
Si 0.025761101689421997 5.4280269816011995 0.018130545012078
Si 0.027330450051114 8.141110406166598 2.6861695498511997
Si 0.025761101689421997 0.018130545022932 5.4280269816011995
