64
Lattice="10.91929849 0.0 0.0 0.0 10.91929849 0.0 0.0 0.0 10.91929849" Properties=species:S:1:pos:R:3
Si 9.554386178749999 1.36491231125 1.36491231125
Si 9.554386178749999 4.094736933749999 4.094736933749999
Si 9.554386178749999 6.82456155625 6.82456155625
Si 9.554386178749999 9.554386178749999 9.554386178749999
Si 6.82456155625 1.36491231125 4.094736933749999
Si 6.82456155625 4.094736933749999 6.82456155625
Si 6.82456155625 6.82456155625 9.554386178749999
Si 6.82456155625 9.554386178749999 1.36491231125
Si 4.094736933749999 1.36491231125 6.82456155625
Si 4.094736933749999 4.094736933749999 9.554386178749999
Si 4.094736933749999 6.82456155625 1.36491231125
Si 4.094736933749999 9.554386178749999 4.094736933749999
Si 1.36491231125 1.36491231125 9.554386178749999
Si 1.36491231125 4.094736933749999 1.36491231125
Si 1.36491231125 6.82456155625 4.094736933749999
Si 1.36491231125 9.554386178749999 6.82456155625
Si 6.82456155625 4.094736933749999 1.36491231125
Si 6.82456155625 6.82456155625 4.094736933749999
Si 6.82456155625 9.554386178749999 6.82456155625
Si 6.82456155625 1.36491231125 9.554386178749999
Si 4.094736933749999 4.094736933749999 4.094736933749999
Si 4.094736933749999 6.82456155625 6.82456155625
Si 4.094736933749999 9.554386178749999 9.554386178749999
Si 4.094736933749999 1.36491231125 1.36491231125
Si 1.36491231125 4.094736933749999 6.82456155625
Si 1.36491231125 6.82456155625 9.554386178749999
Si 1.36491231125 9.554386178749999 1.36491231125
Si 1.36491231125 1.36491231125 4.094736933749999
Si 9.554386178749999 4.094736933749999 9.554386178749999
Si 9.554386178749999 6.82456155625 1.36491231125
Si 9.554386178749999 9.554386178749999 4.094736933749999
Si 9.554386178749999 1.36491231125 6.82456155625
Si 0.0 0.0 0.0
Si 0.0 2.7298246225 2.7298246225
Si 0.0 5.459649245 5.459649245
Si 0.0 8.189473867499999 8.189473867499999
Si 8.189473867499999 0.0 2.7298246225
Si 8.189473867499999 2.7298246225 5.459649245
Si 8.189473867499999 5.459649245 8.189473867499999
Si 8.189473867499999 8.189473867499999 0.0
Si 5.459649245 0.0 5.459649245
Si 5.459649245 2.7298246225 8.189473867499999
Si 5.459649245 5.459649245 0.0
Si 5.459649245 8.189473867499999 2.7298246225
Si 2.7298246225 0.0 8.189473867499999
Si 2.7298246225 2.7298246225 0.0
Si 2.7298246225 5.459649245 2.7298246225
Si 2.7298246225 8.189473867499999 5.459649245
Si 8.189473867499999 2.7298246225 0.0
Si 8.189473867499999 5.459649245 2.7298246225
Si 8.189473867499999 8.189473867499999 5.459649245
Si 8.189473867499999 0.0 8.189473867499999
Si 5.459649245 2.7298246225 2.7298246225
Si 5.459649245 5.459649245 5.459649245
Si 5.459649245 8.189473867499999 8.189473867499999
Si 5.459649245 0.0 0.0
Si 2.7298246225 2.7298246225 5.459649245
Si 2.7298246225 5.459649245 8.189473867499999
Si 2.7298246225 8.189473867499999 0.0
Si 2.7298246225 0.0 2.7298246225
Si 0.0 2.7298246225 8.189473867499999
Si 0.0 5.459649245 0.0
Si 0.0 8.189473867499999 2.7298246225
Si 0.0 0.0 5.459649245
