65
Lattice="10.854 0.0 0.0 0.0 10.854 0.0 0.0 0.0 10.854" Properties=species:S:1:pos:R:3
Si 9.492033148635599 1.3619668513643999 1.3156253597196
Si 9.5035748168304 4.0764945384755995 4.0378170692556
Si 9.510615186866998 6.8155828271946 6.7352015938409995
Si 9.4989629858778 9.4989629858778 9.472393293674399
Si 6.777505461524399 1.3504251831696 4.0378170692556
Si 6.908969983271399 3.9450300167285994 6.8886859575204
Si 6.790786630833599 6.790786630833599 9.499093410797999
Si 6.7908976563996 9.497718415224 1.3432003428905999
Si 4.0384171728054 1.343384813133 6.7352015938409995
Si 4.0632133691664 4.0632133691664 9.499093410797999
Si 4.0652039960226 6.7887960039774 1.3260262106465999
Si 4.0764945384755995 9.5035748168304 4.0378170692556
Si 1.3550370141222 1.3550370141222 9.472393293674399
Si 1.356281584776 4.0631023436003995 1.3432003428905999
Si 1.3504251831696 6.777505461524399 4.0378170692556
Si 1.3581833727275998 9.495816627272399 6.766548938982
Si 6.7887960039774 4.0652039960226 1.3260262106465999
Si 6.847138461680999 6.847138461680999 3.9576503586996
Si 6.8155828271946 9.510615186866998 6.7352015938409995
Si 6.793352535970799 1.3129300651338 9.513642380491799
Si 4.006861538319 4.006861538319 3.9576503586996
Si 3.9450300167285994 6.908969983271399 6.8886859575204
Si 4.0606474640292 9.541069934866199 9.513642380491799
Si 4.0631023436003995 1.356281584776 1.3432003428905999
Si 1.343384813133 4.0384171728054 6.7352015938409995
Si 1.3129300651338 6.793352535970799 9.513642380491799
Si 1.3619668513643999 9.492033148635599 1.3156253597196
Si 1.2921824259683998 1.2921824259683998 4.0030891611534
Si 9.541069934866199 4.0606474640292 9.513642380491799
Si 9.497718415224 6.7908976563996 1.3432003428905999
Si 9.561817574031599 9.561817574031599 4.0030891611534
Si 9.495816627272399 1.3581833727275998 6.766548938982
Si 1.877742e-13 1.2254165999999999e-12 10.826016271904159
Si 10.83814377313518 2.7072104315346 2.6773587871308
Si 2.06226e-13 5.427 5.4033809221097995
Si 0.0001298548165635 8.145292779072 8.1201795058944
Si 8.1467895684654 0.015856226886527998 2.6773587871308
Si 8.1604026845712 2.6935973154288 5.3699965460064
Si 8.213418724121999 5.4437595083586 8.172267864919199
Si 8.1494036642772 8.1494036642772 10.84238929786878
Si 5.427 10.854 5.4033809221097995
Si 5.4102404916413995 2.6405812758779996 8.172267864919199
Si 5.427 5.427 10.8393982326513
Si 5.4155208280517995 8.152468057816199 2.6716684918842
Si 2.708707220928 10.853870145131879 8.1201795058944
Si 2.7045963357228 2.7045963357228 10.84238929786878
Si 2.7015319421837996 5.438479171948199 2.6716684918842
Si 2.6935973154288 8.1604026845712 5.3699965460064
Si 8.141223701304 2.712776298696 10.824312571840439
Si 8.152468057816199 5.4155208280517995 2.6716684918842
Si 8.2225250749098 8.2225250749098 5.313875821783199
Si 8.145292779072 0.00012985481406708 8.1201795058944
Si 5.438479171948199 2.7015319421837996 2.6716684918842
Si 6.2763343655472 6.2763343655472 6.1397201993184
Si 4.577665634452799 4.577665634452799 6.1397201993184
Si 5.4437595083586 8.213418724121999 8.172267864919199
Si 5.427 10.854 0.019518247342169996
Si 2.6314749250902 2.6314749250902 5.313875821783199
Si 2.6405812758779996 5.4102404916413995 8.172267864919199
Si 2.712776298696 8.141223701304 10.8243125717319
Si 2.7072104315346 10.83814377313518 2.6773587871308
Si 10.853870145131879 2.708707220928 8.1201795058944
Si 10.854 5.427 0.019518247342169996
Si 0.015856226886527998 8.1467895684654 2.6773587871308
Si 10.854 10.854 5.427628755938999
